\ENCODING=ISO-8859-1
\Problem name: IloCplex

Minimize
 obj: 100 x1 + 102 x2 + 100 x3 + 104 x4 + 102 x5 + 100 x6 + 106 x7 + 104 x8
      + 102 x9 + 100 x10 + 108 x11 + 106 x12 + 104 x13 + 102 x14 + 100 x15
      + 110 x16 + 108 x17 + 106 x18 + 104 x19 + 102 x20 + 100 x21 + 112 x22
      + 110 x23 + 108 x24 + 106 x25 + 104 x26 + 102 x27 + 100 x28 + 114 x29
      + 112 x30 + 110 x31 + 108 x32 + 106 x33 + 104 x34 + 102 x35 + 100 x36
      + 116 x37 + 114 x38 + 112 x39 + 110 x40 + 108 x41 + 106 x42 + 104 x43
      + 102 x44 + 100 x45 + 118 x46 + 116 x47 + 114 x48 + 112 x49 + 110 x50
      + 108 x51 + 106 x52 + 104 x53 + 102 x54 + 100 x55 + 120 x56 + 118 x57
      + 116 x58 + 114 x59 + 112 x60 + 110 x61 + 108 x62 + 106 x63 + 104 x64
      + 102 x65 + 100 x66 + 122 x67 + 120 x68 + 118 x69 + 116 x70 + 114 x71
      + 112 x72 + 110 x73 + 108 x74 + 106 x75 + 104 x76 + 102 x77 + 100 x78
      + 124 x79 + 122 x80 + 120 x81 + 118 x82 + 116 x83 + 114 x84 + 112 x85
      + 110 x86 + 108 x87 + 106 x88 + 104 x89 + 102 x90 + 100 x91 + 107 x92
      + 109 x93 + 107 x94 + 111 x95 + 109 x96 + 107 x97 + 113 x98 + 111 x99
      + 109 x100 + 107 x101 + 115 x102 + 113 x103 + 111 x104 + 109 x105
      + 107 x106 + 117 x107 + 115 x108 + 113 x109 + 111 x110 + 109 x111
      + 107 x112 + 119 x113 + 117 x114 + 115 x115 + 113 x116 + 111 x117
      + 109 x118 + 107 x119 + 121 x120 + 119 x121 + 117 x122 + 115 x123
      + 113 x124 + 111 x125 + 109 x126 + 107 x127 + 123 x128 + 121 x129
      + 119 x130 + 117 x131 + 115 x132 + 113 x133 + 111 x134 + 109 x135
      + 107 x136 + 125 x137 + 123 x138 + 121 x139 + 119 x140 + 117 x141
      + 115 x142 + 113 x143 + 111 x144 + 109 x145 + 107 x146 + 127 x147
      + 125 x148 + 123 x149 + 121 x150 + 119 x151 + 117 x152 + 115 x153
      + 113 x154 + 111 x155 + 109 x156 + 107 x157 + 129 x158 + 127 x159
      + 125 x160 + 123 x161 + 121 x162 + 119 x163 + 117 x164 + 115 x165
      + 113 x166 + 111 x167 + 109 x168 + 107 x169 + 131 x170 + 129 x171
      + 127 x172 + 125 x173 + 123 x174 + 121 x175 + 119 x176 + 117 x177
      + 115 x178 + 113 x179 + 111 x180 + 109 x181 + 107 x182 + 113 x183
      + 115 x184 + 113 x185 + 117 x186 + 115 x187 + 113 x188 + 119 x189
      + 117 x190 + 115 x191 + 113 x192 + 121 x193 + 119 x194 + 117 x195
      + 115 x196 + 113 x197 + 123 x198 + 121 x199 + 119 x200 + 117 x201
      + 115 x202 + 113 x203 + 125 x204 + 123 x205 + 121 x206 + 119 x207
      + 117 x208 + 115 x209 + 113 x210 + 127 x211 + 125 x212 + 123 x213
      + 121 x214 + 119 x215 + 117 x216 + 115 x217 + 113 x218 + 129 x219
      + 127 x220 + 125 x221 + 123 x222 + 121 x223 + 119 x224 + 117 x225
      + 115 x226 + 113 x227 + 131 x228 + 129 x229 + 127 x230 + 125 x231
      + 123 x232 + 121 x233 + 119 x234 + 117 x235 + 115 x236 + 113 x237
      + 133 x238 + 131 x239 + 129 x240 + 127 x241 + 125 x242 + 123 x243
      + 121 x244 + 119 x245 + 117 x246 + 115 x247 + 113 x248 + 135 x249
      + 133 x250 + 131 x251 + 129 x252 + 127 x253 + 125 x254 + 123 x255
      + 121 x256 + 119 x257 + 117 x258 + 115 x259 + 113 x260 + 137 x261
      + 135 x262 + 133 x263 + 131 x264 + 129 x265 + 127 x266 + 125 x267
      + 123 x268 + 121 x269 + 119 x270 + 117 x271 + 115 x272 + 113 x273 + x274
Subject To
 c1:  x1 + x275 + x276 + x277 + x278 + x279 + x280 + x281 + x282 + x283 + x284
      + x285 + x286 <= 180
 c2:  x2 + x3 + x287 + x288 + x289 + x290 + x291 + x292 + x293 + x294 + x295
      + x296 + x297 <= 180
 c3:  x4 + x5 + x6 + x298 + x299 + x300 + x301 + x302 + x303 + x304 + x305
      + x306 + x307 <= 180
 c4:  x7 + x8 + x9 + x10 + x308 + x309 + x310 + x311 + x312 + x313 + x314
      + x315 + x316 <= 180
 c5:  x11 + x12 + x13 + x14 + x15 + x317 + x318 + x319 + x320 + x321 + x322
      + x323 + x324 <= 180
 c6:  x16 + x17 + x18 + x19 + x20 + x21 + x325 + x326 + x327 + x328 + x329
      + x330 + x331 <= 180
 c7:  x22 + x23 + x24 + x25 + x26 + x27 + x28 + x332 + x333 + x334 + x335
      + x336 + x337 <= 180
 c8:  x29 + x30 + x31 + x32 + x33 + x34 + x35 + x36 + x338 + x339 + x340 + x341
      + x342 <= 180
 c9:  x37 + x38 + x39 + x40 + x41 + x42 + x43 + x44 + x45 + x343 + x344 + x345
      + x346 <= 180
 c10: x46 + x47 + x48 + x49 + x50 + x51 + x52 + x53 + x54 + x55 + x347 + x348
      + x349 <= 180
 c11: x56 + x57 + x58 + x59 + x60 + x61 + x62 + x63 + x64 + x65 + x66 + x350
      + x351 <= 180
 c12: x67 + x68 + x69 + x70 + x71 + x72 + x73 + x74 + x75 + x76 + x77 + x78
      + x352 <= 180
 c13: x79 + x80 + x81 + x82 + x83 + x84 + x85 + x86 + x87 + x88 + x89 + x90
      + x91 <= 180
 c14: x92 + x353 + x354 + x355 + x356 + x357 + x358 + x359 + x360 + x361 + x362
      + x363 + x364 <= 36
 c15: x93 + x94 + x365 + x366 + x367 + x368 + x369 + x370 + x371 + x372 + x373
      + x374 + x375 <= 36
 c16: x95 + x96 + x97 + x376 + x377 + x378 + x379 + x380 + x381 + x382 + x383
      + x384 + x385 <= 36
 c17: x98 + x99 + x100 + x101 + x386 + x387 + x388 + x389 + x390 + x391 + x392
      + x393 + x394 <= 36
 c18: x102 + x103 + x104 + x105 + x106 + x395 + x396 + x397 + x398 + x399
      + x400 + x401 + x402 <= 36
 c19: x107 + x108 + x109 + x110 + x111 + x112 + x403 + x404 + x405 + x406
      + x407 + x408 + x409 <= 36
 c20: x113 + x114 + x115 + x116 + x117 + x118 + x119 + x410 + x411 + x412
      + x413 + x414 + x415 <= 36
 c21: x120 + x121 + x122 + x123 + x124 + x125 + x126 + x127 + x416 + x417
      + x418 + x419 + x420 <= 36
 c22: x128 + x129 + x130 + x131 + x132 + x133 + x134 + x135 + x136 + x421
      + x422 + x423 + x424 <= 36
 c23: x137 + x138 + x139 + x140 + x141 + x142 + x143 + x144 + x145 + x146
      + x425 + x426 + x427 <= 36
 c24: x147 + x148 + x149 + x150 + x151 + x152 + x153 + x154 + x155 + x156
      + x157 + x428 + x429 <= 36
 c25: x158 + x159 + x160 + x161 + x162 + x163 + x164 + x165 + x166 + x167
      + x168 + x169 + x430 <= 36
 c26: x170 + x171 + x172 + x173 + x174 + x175 + x176 + x177 + x178 + x179
      + x180 + x181 + x182 <= 36
 c27: x183 + x431 + x432 + x433 + x434 + x435 + x436 + x437 + x438 + x439
      + x440 + x441 + x442 <= 50
 c28: x184 + x185 + x443 + x444 + x445 + x446 + x447 + x448 + x449 + x450
      + x451 + x452 + x453 <= 50
 c29: x186 + x187 + x188 + x454 + x455 + x456 + x457 + x458 + x459 + x460
      + x461 + x462 + x463 <= 50
 c30: x189 + x190 + x191 + x192 + x464 + x465 + x466 + x467 + x468 + x469
      + x470 + x471 + x472 <= 50
 c31: x193 + x194 + x195 + x196 + x197 + x473 + x474 + x475 + x476 + x477
      + x478 + x479 + x480 <= 50
 c32: x198 + x199 + x200 + x201 + x202 + x203 + x481 + x482 + x483 + x484
      + x485 + x486 + x487 <= 50
 c33: x204 + x205 + x206 + x207 + x208 + x209 + x210 + x488 + x489 + x490
      + x491 + x492 + x493 <= 50
 c34: x211 + x212 + x213 + x214 + x215 + x216 + x217 + x218 + x494 + x495
      + x496 + x497 + x498 <= 50
 c35: x219 + x220 + x221 + x222 + x223 + x224 + x225 + x226 + x227 + x499
      + x500 + x501 + x502 <= 50
 c36: x228 + x229 + x230 + x231 + x232 + x233 + x234 + x235 + x236 + x237
      + x503 + x504 + x505 <= 50
 c37: x238 + x239 + x240 + x241 + x242 + x243 + x244 + x245 + x246 + x247
      + x248 + x506 + x507 <= 50
 c38: x249 + x250 + x251 + x252 + x253 + x254 + x255 + x256 + x257 + x258
      + x259 + x260 + x508 <= 50
 c39: x261 + x262 + x263 + x264 + x265 + x266 + x267 + x268 + x269 + x270
      + x271 + x272 + x273 <= 50
 c40: x1 + x2 + x4 + x7 + x11 + x16 + x22 + x29 + x37 + x46 + x56 + x67 + x79
      + x92 + x93 + x95 + x98 + x102 + x107 + x113 + x120 + x128 + x137 + x147
      + x158 + x170 + x183 + x184 + x186 + x189 + x193 + x198 + x204 + x211
      + x219 + x228 + x238 + x249 + x261  = 100
 c41: x3 + x5 + x8 + x12 + x17 + x23 + x30 + x38 + x47 + x57 + x68 + x80 + x94
      + x96 + x99 + x103 + x108 + x114 + x121 + x129 + x138 + x148 + x159
      + x171 + x185 + x187 + x190 + x194 + x199 + x205 + x212 + x220 + x229
      + x239 + x250 + x262 + x275 + x353 + x431  = 180
 c42: x6 + x9 + x13 + x18 + x24 + x31 + x39 + x48 + x58 + x69 + x81 + x97
      + x100 + x104 + x109 + x115 + x122 + x130 + x139 + x149 + x160 + x172
      + x188 + x191 + x195 + x200 + x206 + x213 + x221 + x230 + x240 + x251
      + x263 + x276 + x287 + x354 + x365 + x432 + x443  = 220
 c43: x10 + x14 + x19 + x25 + x32 + x40 + x49 + x59 + x70 + x82 + x101 + x105
      + x110 + x116 + x123 + x131 + x140 + x150 + x161 + x173 + x192 + x196
      + x201 + x207 + x214 + x222 + x231 + x241 + x252 + x264 + x277 + x288
      + x298 + x355 + x366 + x376 + x433 + x444 + x454  = 150
 c44: x15 + x20 + x26 + x33 + x41 + x50 + x60 + x71 + x83 + x106 + x111 + x117
      + x124 + x132 + x141 + x151 + x162 + x174 + x197 + x202 + x208 + x215
      + x223 + x232 + x242 + x253 + x265 + x278 + x289 + x299 + x308 + x356
      + x367 + x377 + x386 + x434 + x445 + x455 + x464  = 100
 c45: x21 + x27 + x34 + x42 + x51 + x61 + x72 + x84 + x112 + x118 + x125 + x133
      + x142 + x152 + x163 + x175 + x203 + x209 + x216 + x224 + x233 + x243
      + x254 + x266 + x279 + x290 + x300 + x309 + x317 + x357 + x368 + x378
      + x387 + x395 + x435 + x446 + x456 + x465 + x473  = 200
 c46: x28 + x35 + x43 + x52 + x62 + x73 + x85 + x119 + x126 + x134 + x143
      + x153 + x164 + x176 + x210 + x217 + x225 + x234 + x244 + x255 + x267
      + x280 + x291 + x301 + x310 + x318 + x325 + x358 + x369 + x379 + x388
      + x396 + x403 + x436 + x447 + x457 + x466 + x474 + x481  = 250
 c47: x36 + x44 + x53 + x63 + x74 + x86 + x127 + x135 + x144 + x154 + x165
      + x177 + x218 + x226 + x235 + x245 + x256 + x268 + x281 + x292 + x302
      + x311 + x319 + x326 + x332 + x359 + x370 + x380 + x389 + x397 + x404
      + x410 + x437 + x448 + x458 + x467 + x475 + x482 + x488  = 300
 c48: x45 + x54 + x64 + x75 + x87 + x136 + x145 + x155 + x166 + x178 + x227
      + x236 + x246 + x257 + x269 + x282 + x293 + x303 + x312 + x320 + x327
      + x333 + x338 + x360 + x371 + x381 + x390 + x398 + x405 + x411 + x416
      + x438 + x449 + x459 + x468 + x476 + x483 + x489 + x494  = 260
 c49: x55 + x65 + x76 + x88 + x146 + x156 + x167 + x179 + x237 + x247 + x258
      + x270 + x283 + x294 + x304 + x313 + x321 + x328 + x334 + x339 + x343
      + x361 + x372 + x382 + x391 + x399 + x406 + x412 + x417 + x421 + x439
      + x450 + x460 + x469 + x477 + x484 + x490 + x495 + x499  = 250
 c50: x66 + x77 + x89 + x157 + x168 + x180 + x248 + x259 + x271 + x284 + x295
      + x305 + x314 + x322 + x329 + x335 + x340 + x344 + x347 + x362 + x373
      + x383 + x392 + x400 + x407 + x413 + x418 + x422 + x425 + x440 + x451
      + x461 + x470 + x478 + x485 + x491 + x496 + x500 + x503  = 240
 c51: x78 + x90 + x169 + x181 + x260 + x272 + x285 + x296 + x306 + x315 + x323
      + x330 + x336 + x341 + x345 + x348 + x350 + x363 + x374 + x384 + x393
      + x401 + x408 + x414 + x419 + x423 + x426 + x428 + x441 + x452 + x462
      + x471 + x479 + x486 + x492 + x497 + x501 + x504 + x506  = 210
 c52: x91 + x182 + x273 + x286 + x297 + x307 + x316 + x324 + x331 + x337 + x342
      + x346 + x349 + x351 + x352 + x364 + x375 + x385 + x394 + x402 + x409
      + x415 + x420 + x424 + x427 + x429 + x430 + x442 + x453 + x463 + x472
      + x480 + x487 + x493 + x498 + x502 + x505 + x507 + x508  = 140
Bounds
 0 <= x1 <= 1000000
 0 <= x2 <= 1000000
 0 <= x3 <= 1000000
 0 <= x4 <= 1000000
 0 <= x5 <= 1000000
 0 <= x6 <= 1000000
 0 <= x7 <= 1000000
 0 <= x8 <= 1000000
 0 <= x9 <= 1000000
 0 <= x10 <= 1000000
 0 <= x11 <= 1000000
 0 <= x12 <= 1000000
 0 <= x13 <= 1000000
 0 <= x14 <= 1000000
 0 <= x15 <= 1000000
 0 <= x16 <= 1000000
 0 <= x17 <= 1000000
 0 <= x18 <= 1000000
 0 <= x19 <= 1000000
 0 <= x20 <= 1000000
 0 <= x21 <= 1000000
 0 <= x22 <= 1000000
 0 <= x23 <= 1000000
 0 <= x24 <= 1000000
 0 <= x25 <= 1000000
 0 <= x26 <= 1000000
 0 <= x27 <= 1000000
 0 <= x28 <= 1000000
 0 <= x29 <= 1000000
 0 <= x30 <= 1000000
 0 <= x31 <= 1000000
 0 <= x32 <= 1000000
 0 <= x33 <= 1000000
 0 <= x34 <= 1000000
 0 <= x35 <= 1000000
 0 <= x36 <= 1000000
 0 <= x37 <= 1000000
 0 <= x38 <= 1000000
 0 <= x39 <= 1000000
 0 <= x40 <= 1000000
 0 <= x41 <= 1000000
 0 <= x42 <= 1000000
 0 <= x43 <= 1000000
 0 <= x44 <= 1000000
 0 <= x45 <= 1000000
 0 <= x46 <= 1000000
 0 <= x47 <= 1000000
 0 <= x48 <= 1000000
 0 <= x49 <= 1000000
 0 <= x50 <= 1000000
 0 <= x51 <= 1000000
 0 <= x52 <= 1000000
 0 <= x53 <= 1000000
 0 <= x54 <= 1000000
 0 <= x55 <= 1000000
 0 <= x56 <= 1000000
 0 <= x57 <= 1000000
 0 <= x58 <= 1000000
 0 <= x59 <= 1000000
 0 <= x60 <= 1000000
 0 <= x61 <= 1000000
 0 <= x62 <= 1000000
 0 <= x63 <= 1000000
 0 <= x64 <= 1000000
 0 <= x65 <= 1000000
 0 <= x66 <= 1000000
 0 <= x67 <= 1000000
 0 <= x68 <= 1000000
 0 <= x69 <= 1000000
 0 <= x70 <= 1000000
 0 <= x71 <= 1000000
 0 <= x72 <= 1000000
 0 <= x73 <= 1000000
 0 <= x74 <= 1000000
 0 <= x75 <= 1000000
 0 <= x76 <= 1000000
 0 <= x77 <= 1000000
 0 <= x78 <= 1000000
 0 <= x79 <= 1000000
 0 <= x80 <= 1000000
 0 <= x81 <= 1000000
 0 <= x82 <= 1000000
 0 <= x83 <= 1000000
 0 <= x84 <= 1000000
 0 <= x85 <= 1000000
 0 <= x86 <= 1000000
 0 <= x87 <= 1000000
 0 <= x88 <= 1000000
 0 <= x89 <= 1000000
 0 <= x90 <= 1000000
 0 <= x91 <= 1000000
 0 <= x92 <= 1000000
 0 <= x93 <= 1000000
 0 <= x94 <= 1000000
 0 <= x95 <= 1000000
 0 <= x96 <= 1000000
 0 <= x97 <= 1000000
 0 <= x98 <= 1000000
 0 <= x99 <= 1000000
 0 <= x100 <= 1000000
 0 <= x101 <= 1000000
 0 <= x102 <= 1000000
 0 <= x103 <= 1000000
 0 <= x104 <= 1000000
 0 <= x105 <= 1000000
 0 <= x106 <= 1000000
 0 <= x107 <= 1000000
 0 <= x108 <= 1000000
 0 <= x109 <= 1000000
 0 <= x110 <= 1000000
 0 <= x111 <= 1000000
 0 <= x112 <= 1000000
 0 <= x113 <= 1000000
 0 <= x114 <= 1000000
 0 <= x115 <= 1000000
 0 <= x116 <= 1000000
 0 <= x117 <= 1000000
 0 <= x118 <= 1000000
 0 <= x119 <= 1000000
 0 <= x120 <= 1000000
 0 <= x121 <= 1000000
 0 <= x122 <= 1000000
 0 <= x123 <= 1000000
 0 <= x124 <= 1000000
 0 <= x125 <= 1000000
 0 <= x126 <= 1000000
 0 <= x127 <= 1000000
 0 <= x128 <= 1000000
 0 <= x129 <= 1000000
 0 <= x130 <= 1000000
 0 <= x131 <= 1000000
 0 <= x132 <= 1000000
 0 <= x133 <= 1000000
 0 <= x134 <= 1000000
 0 <= x135 <= 1000000
 0 <= x136 <= 1000000
 0 <= x137 <= 1000000
 0 <= x138 <= 1000000
 0 <= x139 <= 1000000
 0 <= x140 <= 1000000
 0 <= x141 <= 1000000
 0 <= x142 <= 1000000
 0 <= x143 <= 1000000
 0 <= x144 <= 1000000
 0 <= x145 <= 1000000
 0 <= x146 <= 1000000
 0 <= x147 <= 1000000
 0 <= x148 <= 1000000
 0 <= x149 <= 1000000
 0 <= x150 <= 1000000
 0 <= x151 <= 1000000
 0 <= x152 <= 1000000
 0 <= x153 <= 1000000
 0 <= x154 <= 1000000
 0 <= x155 <= 1000000
 0 <= x156 <= 1000000
 0 <= x157 <= 1000000
 0 <= x158 <= 1000000
 0 <= x159 <= 1000000
 0 <= x160 <= 1000000
 0 <= x161 <= 1000000
 0 <= x162 <= 1000000
 0 <= x163 <= 1000000
 0 <= x164 <= 1000000
 0 <= x165 <= 1000000
 0 <= x166 <= 1000000
 0 <= x167 <= 1000000
 0 <= x168 <= 1000000
 0 <= x169 <= 1000000
 0 <= x170 <= 1000000
 0 <= x171 <= 1000000
 0 <= x172 <= 1000000
 0 <= x173 <= 1000000
 0 <= x174 <= 1000000
 0 <= x175 <= 1000000
 0 <= x176 <= 1000000
 0 <= x177 <= 1000000
 0 <= x178 <= 1000000
 0 <= x179 <= 1000000
 0 <= x180 <= 1000000
 0 <= x181 <= 1000000
 0 <= x182 <= 1000000
 0 <= x183 <= 1000000
 0 <= x184 <= 1000000
 0 <= x185 <= 1000000
 0 <= x186 <= 1000000
 0 <= x187 <= 1000000
 0 <= x188 <= 1000000
 0 <= x189 <= 1000000
 0 <= x190 <= 1000000
 0 <= x191 <= 1000000
 0 <= x192 <= 1000000
 0 <= x193 <= 1000000
 0 <= x194 <= 1000000
 0 <= x195 <= 1000000
 0 <= x196 <= 1000000
 0 <= x197 <= 1000000
 0 <= x198 <= 1000000
 0 <= x199 <= 1000000
 0 <= x200 <= 1000000
 0 <= x201 <= 1000000
 0 <= x202 <= 1000000
 0 <= x203 <= 1000000
 0 <= x204 <= 1000000
 0 <= x205 <= 1000000
 0 <= x206 <= 1000000
 0 <= x207 <= 1000000
 0 <= x208 <= 1000000
 0 <= x209 <= 1000000
 0 <= x210 <= 1000000
 0 <= x211 <= 1000000
 0 <= x212 <= 1000000
 0 <= x213 <= 1000000
 0 <= x214 <= 1000000
 0 <= x215 <= 1000000
 0 <= x216 <= 1000000
 0 <= x217 <= 1000000
 0 <= x218 <= 1000000
 0 <= x219 <= 1000000
 0 <= x220 <= 1000000
 0 <= x221 <= 1000000
 0 <= x222 <= 1000000
 0 <= x223 <= 1000000
 0 <= x224 <= 1000000
 0 <= x225 <= 1000000
 0 <= x226 <= 1000000
 0 <= x227 <= 1000000
 0 <= x228 <= 1000000
 0 <= x229 <= 1000000
 0 <= x230 <= 1000000
 0 <= x231 <= 1000000
 0 <= x232 <= 1000000
 0 <= x233 <= 1000000
 0 <= x234 <= 1000000
 0 <= x235 <= 1000000
 0 <= x236 <= 1000000
 0 <= x237 <= 1000000
 0 <= x238 <= 1000000
 0 <= x239 <= 1000000
 0 <= x240 <= 1000000
 0 <= x241 <= 1000000
 0 <= x242 <= 1000000
 0 <= x243 <= 1000000
 0 <= x244 <= 1000000
 0 <= x245 <= 1000000
 0 <= x246 <= 1000000
 0 <= x247 <= 1000000
 0 <= x248 <= 1000000
 0 <= x249 <= 1000000
 0 <= x250 <= 1000000
 0 <= x251 <= 1000000
 0 <= x252 <= 1000000
 0 <= x253 <= 1000000
 0 <= x254 <= 1000000
 0 <= x255 <= 1000000
 0 <= x256 <= 1000000
 0 <= x257 <= 1000000
 0 <= x258 <= 1000000
 0 <= x259 <= 1000000
 0 <= x260 <= 1000000
 0 <= x261 <= 1000000
 0 <= x262 <= 1000000
 0 <= x263 <= 1000000
 0 <= x264 <= 1000000
 0 <= x265 <= 1000000
 0 <= x266 <= 1000000
 0 <= x267 <= 1000000
 0 <= x268 <= 1000000
 0 <= x269 <= 1000000
 0 <= x270 <= 1000000
 0 <= x271 <= 1000000
 0 <= x272 <= 1000000
 0 <= x273 <= 1000000
      x274 = 0
 0 <= x275 <= 1000000
 0 <= x276 <= 1000000
 0 <= x277 <= 1000000
 0 <= x278 <= 1000000
 0 <= x279 <= 1000000
 0 <= x280 <= 1000000
 0 <= x281 <= 1000000
 0 <= x282 <= 1000000
 0 <= x283 <= 1000000
 0 <= x284 <= 1000000
 0 <= x285 <= 1000000
 0 <= x286 <= 1000000
 0 <= x287 <= 1000000
 0 <= x288 <= 1000000
 0 <= x289 <= 1000000
 0 <= x290 <= 1000000
 0 <= x291 <= 1000000
 0 <= x292 <= 1000000
 0 <= x293 <= 1000000
 0 <= x294 <= 1000000
 0 <= x295 <= 1000000
 0 <= x296 <= 1000000
 0 <= x297 <= 1000000
 0 <= x298 <= 1000000
 0 <= x299 <= 1000000
 0 <= x300 <= 1000000
 0 <= x301 <= 1000000
 0 <= x302 <= 1000000
 0 <= x303 <= 1000000
 0 <= x304 <= 1000000
 0 <= x305 <= 1000000
 0 <= x306 <= 1000000
 0 <= x307 <= 1000000
 0 <= x308 <= 1000000
 0 <= x309 <= 1000000
 0 <= x310 <= 1000000
 0 <= x311 <= 1000000
 0 <= x312 <= 1000000
 0 <= x313 <= 1000000
 0 <= x314 <= 1000000
 0 <= x315 <= 1000000
 0 <= x316 <= 1000000
 0 <= x317 <= 1000000
 0 <= x318 <= 1000000
 0 <= x319 <= 1000000
 0 <= x320 <= 1000000
 0 <= x321 <= 1000000
 0 <= x322 <= 1000000
 0 <= x323 <= 1000000
 0 <= x324 <= 1000000
 0 <= x325 <= 1000000
 0 <= x326 <= 1000000
 0 <= x327 <= 1000000
 0 <= x328 <= 1000000
 0 <= x329 <= 1000000
 0 <= x330 <= 1000000
 0 <= x331 <= 1000000
 0 <= x332 <= 1000000
 0 <= x333 <= 1000000
 0 <= x334 <= 1000000
 0 <= x335 <= 1000000
 0 <= x336 <= 1000000
 0 <= x337 <= 1000000
 0 <= x338 <= 1000000
 0 <= x339 <= 1000000
 0 <= x340 <= 1000000
 0 <= x341 <= 1000000
 0 <= x342 <= 1000000
 0 <= x343 <= 1000000
 0 <= x344 <= 1000000
 0 <= x345 <= 1000000
 0 <= x346 <= 1000000
 0 <= x347 <= 1000000
 0 <= x348 <= 1000000
 0 <= x349 <= 1000000
 0 <= x350 <= 1000000
 0 <= x351 <= 1000000
 0 <= x352 <= 1000000
 0 <= x353 <= 1000000
 0 <= x354 <= 1000000
 0 <= x355 <= 1000000
 0 <= x356 <= 1000000
 0 <= x357 <= 1000000
 0 <= x358 <= 1000000
 0 <= x359 <= 1000000
 0 <= x360 <= 1000000
 0 <= x361 <= 1000000
 0 <= x362 <= 1000000
 0 <= x363 <= 1000000
 0 <= x364 <= 1000000
 0 <= x365 <= 1000000
 0 <= x366 <= 1000000
 0 <= x367 <= 1000000
 0 <= x368 <= 1000000
 0 <= x369 <= 1000000
 0 <= x370 <= 1000000
 0 <= x371 <= 1000000
 0 <= x372 <= 1000000
 0 <= x373 <= 1000000
 0 <= x374 <= 1000000
 0 <= x375 <= 1000000
 0 <= x376 <= 1000000
 0 <= x377 <= 1000000
 0 <= x378 <= 1000000
 0 <= x379 <= 1000000
 0 <= x380 <= 1000000
 0 <= x381 <= 1000000
 0 <= x382 <= 1000000
 0 <= x383 <= 1000000
 0 <= x384 <= 1000000
 0 <= x385 <= 1000000
 0 <= x386 <= 1000000
 0 <= x387 <= 1000000
 0 <= x388 <= 1000000
 0 <= x389 <= 1000000
 0 <= x390 <= 1000000
 0 <= x391 <= 1000000
 0 <= x392 <= 1000000
 0 <= x393 <= 1000000
 0 <= x394 <= 1000000
 0 <= x395 <= 1000000
 0 <= x396 <= 1000000
 0 <= x397 <= 1000000
 0 <= x398 <= 1000000
 0 <= x399 <= 1000000
 0 <= x400 <= 1000000
 0 <= x401 <= 1000000
 0 <= x402 <= 1000000
 0 <= x403 <= 1000000
 0 <= x404 <= 1000000
 0 <= x405 <= 1000000
 0 <= x406 <= 1000000
 0 <= x407 <= 1000000
 0 <= x408 <= 1000000
 0 <= x409 <= 1000000
 0 <= x410 <= 1000000
 0 <= x411 <= 1000000
 0 <= x412 <= 1000000
 0 <= x413 <= 1000000
 0 <= x414 <= 1000000
 0 <= x415 <= 1000000
 0 <= x416 <= 1000000
 0 <= x417 <= 1000000
 0 <= x418 <= 1000000
 0 <= x419 <= 1000000
 0 <= x420 <= 1000000
 0 <= x421 <= 1000000
 0 <= x422 <= 1000000
 0 <= x423 <= 1000000
 0 <= x424 <= 1000000
 0 <= x425 <= 1000000
 0 <= x426 <= 1000000
 0 <= x427 <= 1000000
 0 <= x428 <= 1000000
 0 <= x429 <= 1000000
 0 <= x430 <= 1000000
 0 <= x431 <= 1000000
 0 <= x432 <= 1000000
 0 <= x433 <= 1000000
 0 <= x434 <= 1000000
 0 <= x435 <= 1000000
 0 <= x436 <= 1000000
 0 <= x437 <= 1000000
 0 <= x438 <= 1000000
 0 <= x439 <= 1000000
 0 <= x440 <= 1000000
 0 <= x441 <= 1000000
 0 <= x442 <= 1000000
 0 <= x443 <= 1000000
 0 <= x444 <= 1000000
 0 <= x445 <= 1000000
 0 <= x446 <= 1000000
 0 <= x447 <= 1000000
 0 <= x448 <= 1000000
 0 <= x449 <= 1000000
 0 <= x450 <= 1000000
 0 <= x451 <= 1000000
 0 <= x452 <= 1000000
 0 <= x453 <= 1000000
 0 <= x454 <= 1000000
 0 <= x455 <= 1000000
 0 <= x456 <= 1000000
 0 <= x457 <= 1000000
 0 <= x458 <= 1000000
 0 <= x459 <= 1000000
 0 <= x460 <= 1000000
 0 <= x461 <= 1000000
 0 <= x462 <= 1000000
 0 <= x463 <= 1000000
 0 <= x464 <= 1000000
 0 <= x465 <= 1000000
 0 <= x466 <= 1000000
 0 <= x467 <= 1000000
 0 <= x468 <= 1000000
 0 <= x469 <= 1000000
 0 <= x470 <= 1000000
 0 <= x471 <= 1000000
 0 <= x472 <= 1000000
 0 <= x473 <= 1000000
 0 <= x474 <= 1000000
 0 <= x475 <= 1000000
 0 <= x476 <= 1000000
 0 <= x477 <= 1000000
 0 <= x478 <= 1000000
 0 <= x479 <= 1000000
 0 <= x480 <= 1000000
 0 <= x481 <= 1000000
 0 <= x482 <= 1000000
 0 <= x483 <= 1000000
 0 <= x484 <= 1000000
 0 <= x485 <= 1000000
 0 <= x486 <= 1000000
 0 <= x487 <= 1000000
 0 <= x488 <= 1000000
 0 <= x489 <= 1000000
 0 <= x490 <= 1000000
 0 <= x491 <= 1000000
 0 <= x492 <= 1000000
 0 <= x493 <= 1000000
 0 <= x494 <= 1000000
 0 <= x495 <= 1000000
 0 <= x496 <= 1000000
 0 <= x497 <= 1000000
 0 <= x498 <= 1000000
 0 <= x499 <= 1000000
 0 <= x500 <= 1000000
 0 <= x501 <= 1000000
 0 <= x502 <= 1000000
 0 <= x503 <= 1000000
 0 <= x504 <= 1000000
 0 <= x505 <= 1000000
 0 <= x506 <= 1000000
 0 <= x507 <= 1000000
 0 <= x508 <= 1000000
End
